
Cover cuts applied:  36
Implied bound cuts applied:  6
Flow cuts applied:  16
Mixed integer rounding cuts applied:  12
Zero-half cuts applied:  13
Multi commodity flow cuts applied:  3
Gomory fractional cuts applied:  1

Root node processing (before b&c):
  Real time             =    0.04 sec. (14.46 ticks)
Parallel b&c, 4 threads:
  Real time             =    0.03 sec. (14.21 ticks)
  Sync time (average)   =    0.00 sec.
  Wait time (average)   =    0.00 sec.
                          ------------
Total (root+branch&cut) =    0.07 sec. (28.68 ticks)
Version identifier: 12.10.0.0 | 2019-11-26 | 843d4de
CPXPARAM_MIP_Interval                            10
CPXPARAM_MIP_Tolerances_AbsMIPGap                0.98999999999999999
Tried aggregator 2 times.
MIP Presolve eliminated 1543 rows and 1005 columns.
MIP Presolve modified 1 coefficients.
Aggregator did 39 substitutions.
Reduced MIP has 123 rows, 132 columns, and 433 nonzeros.
Reduced MIP has 58 binaries, 74 generals, 0 SOSs, and 0 indicators.
Presolve time = 0.00 sec. (1.76 ticks)
Probing fixed 0 vars, tightened 7 bounds.
Probing changed sense of 4 constraints.
Probing time = 0.00 sec. (0.03 ticks)
Tried aggregator 1 time.
Detecting symmetries...
MIP Presolve eliminated 7 rows and 6 columns.
MIP Presolve modified 9 coefficients.
Reduced MIP has 116 rows, 126 columns, and 408 nonzeros.
Reduced MIP has 54 binaries, 72 generals, 0 SOSs, and 0 indicators.
Presolve time = 0.00 sec. (0.31 ticks)
Probing time = 0.00 sec. (0.02 ticks)
MIP emphasis: balance optimality and feasibility.
MIP search method: dynamic search.
Parallel mode: deterministic, using up to 4 threads.
Root relaxation solution time = 0.00 sec. (0.75 ticks)

        Nodes                                         Cuts/
   Node  Left     Objective  IInf  Best Integer    Best Bound    ItCnt     Gap

      0     0       16.5000    13                     16.5000      127         
      0     0       16.0667    13                    Cuts: 52      158         
      0     0       16.0000    13                    Cuts: 44      190         
      0     0       16.0000    13                    Cuts: 42      226         
      0     0       16.0000    13                    Cuts: 24      256         
      0     0       15.9469    13                    Cuts: 13      296         
Detecting symmetries...
      0     0       15.9444    13                    Cuts: 54      324         
      0     0       15.9379    13                    Cuts: 21      353         
      0     0       15.8587    13                    Cuts: 34      376         
      0     0       15.8333    13                    Cuts: 30      397         
      0     0       15.8194    13                    Cuts: 20      409         
      0     0       15.7857    13                    Cuts: 24      426         
      0     0       15.7857    13                    Cuts: 42      439         
*     0+    0                           13.0000       15.7857            21.43%
Detecting symmetries...
      0     2       15.7857    69       13.0000       15.7500      439   21.15%
Elapsed time = 0.07 sec. (31.83 ticks, tree = 0.02 MB, solutions = 1)
     10     9       15.3116    21       13.0000       15.7500      547   21.15%
     20    11       15.3833    32       13.0000       15.6667      626   20.51%
     30    18       15.1667     8       13.0000       15.6667      698   20.51%
     40    19       14.8333     8       13.0000       15.6667      720   20.51%
     50    35       14.9094    12       13.0000       15.6667     1078   20.51%
     60    25       15.0000    17       13.0000       15.6667      923   20.51%
     70    45       15.4815    31       13.0000       15.6667     1383   20.51%
     80    54       15.2101    30       13.0000       15.6667     1540   20.51%
     90    52       14.6074    16       13.0000       15.6667     1572   20.51%
    100    54       14.4130    22       13.0000       15.6667     1646   20.51%
Elapsed time = 0.11 sec. (37.35 ticks, tree = 0.02 MB, solutions = 1)
    110    60        cutoff             13.0000       15.6667     1706   20.51%
    120    62       14.8043    16       13.0000       15.6667     1718   20.51%
    130    55       14.4783    14       13.0000       15.6667     1630   20.51%
    140    67       14.0000    10       13.0000       15.6643     2051   20.49%
    150    57       15.5000    32       13.0000       15.6643     1816   20.49%
    160    68       15.4396    29       13.0000       15.6250     2086   20.19%
    170    71       14.9855    21       13.0000       15.6250     2162   20.19%
    180    86       14.0000    23       13.0000       15.6250     2457   20.19%
    190    86        cutoff             13.0000       15.6250     2483   20.19%
    200    93       14.4783    11       13.0000       15.6250     2824   20.19%
Elapsed time = 0.12 sec. (41.93 ticks, tree = 0.03 MB, solutions = 1)
    210    93       14.3261     9       13.0000       15.6250     2852   20.19%
    220    93       14.3333    17       13.0000       15.6250     2591   20.19%
    230    78        cutoff             13.0000       15.6250     2342   20.19%
    240    98       15.4792    43       13.0000       15.6111     3095   20.09%
    250    95       14.9783    14       13.0000       15.6111     2664   20.09%
    260   100       15.1818    23       13.0000       15.6111     3132   20.09%
    270   102       15.0000    11       13.0000       15.6111     3156   20.09%
    280   105       14.3955    25       13.0000       15.6111     3197   20.09%
    290   112       14.9710    33       13.0000       15.6111     3440   20.09%
    300   142    infeasible             13.0000       15.6111     4183   20.09%
Elapsed time = 0.14 sec. (45.98 ticks, tree = 0.03 MB, solutions = 1)
    310   116       14.6667    10       13.0000       15.6111     3517   20.09%
    320   107        cutoff             13.0000       15.6111     3337   20.09%
    330   130       15.0928    51       13.0000       15.6111     3895   20.09%
*   334    94      integral     0       14.0000       15.6111     3568   11.51%
    340   109       14.9444    19       14.0000       15.6111     3353   11.51%
    350   148       14.7283    17       14.0000       15.6111     4347   11.51%
    360   134        cutoff             14.0000       15.6111     3988   11.51%
    370   149       14.6522    12       14.0000       15.4251     4409   10.18%
    380   151    infeasible             14.0000       15.4251     4424   10.18%
    390   140       14.0000     6       14.0000       15.4251     4102   10.18%
    400   152        cutoff             14.0000       15.4251     4483   10.18%
Elapsed time = 0.16 sec. (49.49 ticks, tree = 0.03 MB, solutions = 2)
    410   138        cutoff             14.0000       15.4251     4137   10.18%
    420    54    infeasible             14.0000       15.4251     5097   10.18%
    430   152       14.6667    36       14.0000       15.4251     4562   10.18%
    440   156       14.0000    17       14.0000       15.4251     4619   10.18%
    450    30        cutoff             14.0000       15.3519     5774    9.66%
    460    22        cutoff             14.0000       15.3519     5918    9.66%
the number of Nodes = 465
